Academic license - for non-commercial use only
Gurobi Optimizer version 9.0.3 build v9.0.3rc0 (mac64)
Optimize a model with 383414 rows, 360720 columns and 2101770 nonzeros
Model fingerprint: 0xe46a76b9
Variable types: 0 continuous, 360720 integer (360720 binary)
Coefficient statistics:
  Matrix range     [1e+00, 1e+00]
  Objective range  [1e+01, 1e+05]
  Bounds range     [1e+00, 1e+00]
  RHS range        [1e+00, 1e+03]
Presolve removed 10030 rows and 30 columns (presolve time = 6s) ...
Presolve added 0 rows and 9970 columns
Presolve removed 30 rows and 0 columns
Presolve time: 7.11s
Presolved: 383384 rows, 370690 columns, 1531710 nonzeros
Variable types: 0 continuous, 370690 integer (370690 binary)
Found heuristic solution: objective 1161175.0000

Concurrent LP optimizer: dual simplex and barrier
Showing barrier log only...

Root barrier log...

Ordering time: 0.10s

Barrier statistics:
 Dense cols : 360
 AA' NZ     : 1.188e+06
 Factor NZ  : 7.430e+06 (roughly 400 MBytes of memory)
 Factor Ops : 2.001e+09 (less than 1 second per iteration)
 Threads    : 3

                  Objective                Residual
Iter       Primal          Dual         Primal    Dual     Compl     Time
   0   5.44344620e+08 -7.79015911e+08  4.24e+02 2.93e+01  3.39e+04    15s
   1   2.75789626e+06 -9.48845475e+08  3.46e+00 5.77e+03  1.08e+03    15s
   2   1.79415948e+06 -4.01915611e+08  1.16e+00 2.04e+03  4.10e+02    16s
   3   1.67040327e+06 -1.91038252e+08  8.65e-01 8.78e+02  1.93e+02    16s
   4   1.34903372e+06 -7.35142198e+07  9.39e-02 2.87e+02  6.89e+01    17s
   5   1.28561826e+06 -1.13745148e+07  8.44e-03 4.67e+01  1.15e+01    17s
   6   1.24657320e+06 -1.31584444e+06  4.30e-03 7.98e+00  2.32e+00    18s
   7   1.21248817e+06  2.39164615e+05  3.30e-03 2.24e+00  8.79e-01    18s
   8   1.18820339e+06  6.20585879e+05  2.73e-03 9.74e-01  5.12e-01    19s
   9   1.16616414e+06  7.83575106e+05  2.33e-03 5.34e-01  3.44e-01    19s
  10   1.14188984e+06  8.33141102e+05  1.99e-03 3.88e-01  2.78e-01    20s
  11   1.11751982e+06  9.00504594e+05  1.72e-03 2.80e-01  1.95e-01    21s
  12   1.09345303e+06  9.33742527e+05  1.45e-03 1.90e-01  1.43e-01    21s
  13   1.08444457e+06  9.46613873e+05  1.34e-03 1.35e-01  1.24e-01    22s
  14   1.06381642e+06  9.55174348e+05  1.11e-03 9.66e-02  9.74e-02    23s
  15   1.04951499e+06  9.63003253e+05  9.35e-04 6.15e-02  7.75e-02    24s
  16   1.03947449e+06  9.68296750e+05  8.21e-04 4.08e-02  6.38e-02    24s
  17   1.02704861e+06  9.71141378e+05  6.70e-04 2.93e-02  5.01e-02    25s
  18   1.02313865e+06  9.72824576e+05  6.24e-04 2.36e-02  4.51e-02    26s
  19   1.01354312e+06  9.74484038e+05  5.01e-04 1.82e-02  3.50e-02    26s
  20   1.00801631e+06  9.75358313e+05  4.30e-04 1.54e-02  2.92e-02    27s
  21   1.00237800e+06  9.76655035e+05  3.56e-04 1.14e-02  2.30e-02    28s
  22   9.99753748e+05  9.77258383e+05  3.19e-04 9.49e-03  2.01e-02    28s
  23   9.94163856e+05  9.77566219e+05  2.35e-04 8.68e-03  1.49e-02    29s
  24   9.92154266e+05  9.78354978e+05  2.03e-04 6.19e-03  1.24e-02    29s
  25   9.90140093e+05  9.78709093e+05  1.71e-04 4.58e-03  1.02e-02    30s
  26   9.87687463e+05  9.79000862e+05  1.34e-04 3.76e-03  7.77e-03    30s
  27   9.86453650e+05  9.79260082e+05  1.12e-04 3.07e-03  6.44e-03    31s
  28   9.85688098e+05  9.79470325e+05  9.78e-05 2.54e-03  5.56e-03    31s
  29   9.84923154e+05  9.79632812e+05  8.53e-05 2.10e-03  4.73e-03    32s
  30   9.84043019e+05  9.79801555e+05  7.06e-05 1.73e-03  3.79e-03    32s
  31   9.83529999e+05  9.80022369e+05  6.15e-05 1.73e-03  3.14e-03    33s
  32   9.83188562e+05  9.80165826e+05  5.44e-05 1.19e-03  2.70e-03    34s
  33   9.82540802e+05  9.80196890e+05  4.27e-05 1.08e-03  2.10e-03    34s
  34   9.82225466e+05  9.80267639e+05  3.68e-05 8.56e-04  1.75e-03    35s
  35   9.81940652e+05  9.80338619e+05  3.12e-05 6.06e-04  1.43e-03    35s
  36   9.81817102e+05  9.80369639e+05  2.86e-05 4.99e-04  1.29e-03    36s
  37   9.81743739e+05  9.80380094e+05  2.72e-05 4.59e-04  1.22e-03    36s
  38   9.81672331e+05  9.80408001e+05  2.58e-05 4.99e-04  1.13e-03    37s
  39   9.81473453e+05  9.80419184e+05  2.17e-05 4.33e-04  9.42e-04    37s
  40   9.81349478e+05  9.80431663e+05  1.92e-05 3.67e-04  8.20e-04    38s
  41   9.81222725e+05  9.80442941e+05  1.66e-05 3.05e-04  6.97e-04    38s
  42   9.81132678e+05  9.80463282e+05  1.48e-05 2.09e-04  5.98e-04    39s
  43   9.81040817e+05  9.80469663e+05  1.29e-05 1.81e-04  5.10e-04    39s
  44   9.80974490e+05  9.80480799e+05  1.13e-05 1.32e-04  4.41e-04    40s
  45   9.80879362e+05  9.80483783e+05  9.24e-06 1.31e-04  3.53e-04    40s
  46   9.80827359e+05  9.80487588e+05  8.10e-06 1.10e-04  3.03e-04    41s
  47   9.80775781e+05  9.80491680e+05  6.85e-06 8.63e-05  2.54e-04    41s
  48   9.80737695e+05  9.80494151e+05  5.98e-06 7.10e-05  2.17e-04    42s
  49   9.80694186e+05  9.80495649e+05  4.94e-06 6.37e-05  1.77e-04    42s
  50   9.80678336e+05  9.80500041e+05  4.55e-06 4.75e-05  1.59e-04    43s
  51   9.80660348e+05  9.80500809e+05  4.04e-06 4.56e-05  1.42e-04    43s
  52   9.80631016e+05  9.80502927e+05  3.31e-06 4.30e-05  1.14e-04    44s
  53   9.80606574e+05  9.80503950e+05  2.73e-06 3.73e-05  9.15e-05    44s
  54   9.80590810e+05  9.80505469e+05  2.28e-06 2.96e-05  7.61e-05    45s
  55   9.80579170e+05  9.80506815e+05  1.98e-06 2.26e-05  6.45e-05    45s
  56   9.80567683e+05  9.80507821e+05  1.66e-06 1.88e-05  5.34e-05    46s
  57   9.80563408e+05  9.80507967e+05  1.55e-06 1.81e-05  4.94e-05    46s
  58   9.80554480e+05  9.80509340e+05  1.28e-06 1.78e-05  4.02e-05    46s
  59   9.80548975e+05  9.80509636e+05  1.13e-06 1.58e-05  3.51e-05    47s
  60   9.80543074e+05  9.80510057e+05  9.48e-07 1.32e-05  2.94e-05    47s
  61   9.80535197e+05  9.80510378e+05  7.11e-07 1.13e-05  2.21e-05    48s
  62   9.80531236e+05  9.80511645e+05  5.95e-07 5.25e-06  1.75e-05    48s
  63   9.80528250e+05  9.80511793e+05  5.14e-07 4.27e-06  1.47e-05    49s
  64   9.80527101e+05  9.80511871e+05  4.75e-07 3.79e-06  1.36e-05    49s
  65   9.80524258e+05  9.80512033e+05  3.93e-07 2.86e-06  1.09e-05    50s
  66   9.80522202e+05  9.80512139e+05  3.36e-07 2.46e-06  8.96e-06    50s
  67   9.80520276e+05  9.80512278e+05  2.69e-07 1.74e-06  7.12e-06    51s
  68   9.80519118e+05  9.80512351e+05  2.31e-07 1.39e-06  6.02e-06    51s
  69   9.80518175e+05  9.80512466e+05  2.00e-07 9.92e-07  5.08e-06    52s
  70   9.80517048e+05  9.80512508e+05  1.58e-07 8.45e-07  4.04e-06    52s
  71   9.80514617e+05  9.80512662e+05  7.49e-08 3.28e-07  1.74e-06    53s
  72   9.80514165e+05  9.80512703e+05  5.62e-08 1.48e-07  1.30e-06    53s
  73   9.80513977e+05  9.80512732e+05  4.85e-08 8.14e-08  1.11e-06    54s
  74   9.80513827e+05  9.80512734e+05  4.25e-08 6.87e-08  9.71e-07    54s
  75   9.80513767e+05  9.80512735e+05  4.01e-08 5.73e-08  9.17e-07    54s
  76   9.80513678e+05  9.80512736e+05  3.66e-08 3.46e-08  8.36e-07    55s
  77   9.80513552e+05  9.80512737e+05  3.19e-08 3.06e-08  7.24e-07    55s
  78   9.80513045e+05  9.80512740e+05  1.12e-08 3.58e-09  2.71e-07    56s
  79   9.80512827e+05  9.80512750e+05  2.48e-09 1.48e-07  6.84e-08    56s
  80   9.80512799e+05  9.80512751e+05  1.43e-09 2.43e-07  4.34e-08    57s
  81   9.80512799e+05  9.80512751e+05  1.43e-09 2.44e-07  4.34e-08    57s
  82   9.80512799e+05  9.80512751e+05  7.89e-09 2.40e-07  4.29e-08    58s
  83   9.80512799e+05  9.80512751e+05  7.84e-09 1.91e-07  4.26e-08    58s

Barrier solved model in 83 iterations and 58.06 seconds
Optimal objective 9.80512799e+05


Root crossover log...

  102122 DPushes remaining with DInf 0.0000000e+00                58s
    1528 DPushes remaining with DInf 0.0000000e+00                60s
       0 DPushes remaining with DInf 0.0000000e+00                63s

    2878 PPushes remaining with PInf 4.2244360e-05                63s
       0 PPushes remaining with PInf 5.9587382e-06                63s

  Push phase complete: Pinf 5.9587382e-06, Dinf 5.4101839e-02     63s


Root simplex log...

Iteration    Objective       Primal Inf.    Dual Inf.      Time
   16556    9.8051276e+05   0.000000e+00   5.410184e-02     63s
   16559    9.8051276e+05   0.000000e+00   0.000000e+00     63s

Solved with barrier

Root relaxation: objective 9.805128e+05, 16559 iterations, 50.43 seconds
Total elapsed time = 65.66s

    Nodes    |    Current Node    |     Objective Bounds      |     Work
 Expl Unexpl |  Obj  Depth IntInf | Incumbent    BestBd   Gap | It/Node Time

     0     0 980512.762    0 29720 1161175.00 980512.762  15.6%     -   68s
H    0     0                    1004714.0000 980512.762  2.41%     -   71s
H    0     0                    1003855.0000 980512.762  2.33%     -  126s
     0     0 980512.762    0 29708 1003855.00 980512.762  2.33%     -  215s

Explored 1 nodes (24784 simplex iterations) in 300.11 seconds
Thread count was 8 (of 8 available processors)

Solution count 3: 1.00386e+06 1.00471e+06 1.16118e+06 

Time limit reached
Best objective 1.003855000000e+06, best bound 9.805127620959e+05, gap 2.3253%

User-callback calls 16098, time in user-callback 0.19 sec
Solution written to /Users/mdeboute/Desktop/Etudes/Master/M2/S9/GOPP/Projet/multi-period-flp/solution/instMulti_I30_J1000_T12_0_result.txt
